LAMMPS (29 Aug 2024)
  using 4 OpenMP thread(s) per MPI task
# Sequence matters* as the script is read top-2-bottom

# 1. Energy minimization

#### Initialization ####
units lj
dimension 3
atom_style atomic
pair_style lj/cut 2.5
boundary p p p

#### System Definition ####
region simulation_box block -20 20 -20 20 -20 20
create_box 2 simulation_box
Created orthogonal box = (-20 -20 -20) to (20 20 20)
  1 by 2 by 2 MPI processor grid
create_atoms 1 random 1500 341341 simulation_box
Created 1500 atoms
  using lattice units in orthogonal box = (-20 -20 -20) to (20 20 20)
  create_atoms CPU = 0.001 seconds
create_atoms 2 random 100 127569 simulation_box
Created 100 atoms
  using lattice units in orthogonal box = (-20 -20 -20) to (20 20 20)
  create_atoms CPU = 0.000 seconds

#### Simualtion Settings ####
mass 1 1
mass 2 1
# mass * 1
pair_coeff 1 1 1.0 1.0
pair_coeff 2 2 0.5 3.0
# pair_coeff 1 2 0.707 1.732    # geometric average, arithmetic rule could also be used

#### Visualisation ####
thermo 10
thermo_style custom step temp pe ke etotal press

#### Running Simulation ####
minimize 1.0e-4 1.0e-6 10000 100000
Generated 1 of 1 mixed pair_coeff terms from geometric mixing rule
Neighbor list info ...
  update: every = 1 steps, delay = 0 steps, check = yes
  max neighbors/atom: 2000, page size: 100000
  master list distance cutoff = 2.8
  ghost atom cutoff = 2.8
  binsize = 1.4, bins = 29 29 29
  1 neighbor lists, perpetual/occasional/extra = 1 0 0
  (1) pair lj/cut, perpetual
      attributes: half, newton on
      pair build: half/bin/atomonly/newton
      stencil: half/bin/3d
      bin: standard
Per MPI rank memory allocation (min/avg/max) = 6.883 | 6.883 | 6.883 Mbytes
   Step          Temp          PotEng         KinEng         TotEng         Press     
         0   0              78840982       0              78840982       7884122      
        10   0              169.90532      0              169.90532      17.187291    
        20   0             -0.22335386     0             -0.22335386    -0.0034892297 
        30   0             -0.31178296     0             -0.31178296    -0.0027290466 
        40   0             -0.38135002     0             -0.38135002    -0.0016419218 
        50   0             -0.42686621     0             -0.42686621    -0.0015219081 
        60   0             -0.46153953     0             -0.46153953    -0.0010659992 
        70   0             -0.48581568     0             -0.48581568    -0.0014849169 
        80   0             -0.51799572     0             -0.51799572    -0.0012995545 
        90   0             -0.5527325      0             -0.5527325     -0.0013134141 
       100   0             -0.57968749     0             -0.57968749    -0.0011100224 
       110   0             -0.60215558     0             -0.60215558    -0.00098759057
       120   0             -0.62309042     0             -0.62309042    -0.00087882184
       130   0             -0.64171723     0             -0.64171723    -0.00079695034
       140   0             -0.66426829     0             -0.66426829    -0.00078657228
       150   0             -0.68078114     0             -0.68078114    -0.00057901331
       160   0             -0.69138845     0             -0.69138845    -0.00052420675
       170   0             -0.69940121     0             -0.69940121    -0.00052256154
       180   0             -0.71193158     0             -0.71193158    -0.00065164675
       190   0             -0.72444253     0             -0.72444253    -0.00077771303
       200   0             -0.74303883     0             -0.74303883    -0.00063483736
       210   0             -0.75639471     0             -0.75639471    -0.00056452717
       220   0             -0.76893784     0             -0.76893784    -0.00066353705
       230   0             -0.78603789     0             -0.78603789    -0.00066692535
       240   0             -0.80185632     0             -0.80185632    -0.00061616173
       250   0             -0.81715265     0             -0.81715265    -0.00058302102
       260   0             -0.82730607     0             -0.82730607    -0.00047362884
       270   0             -0.84026106     0             -0.84026106    -0.00054670787
       280   0             -0.85125656     0             -0.85125656    -0.00035703504
       290   0             -0.86096733     0             -0.86096733    -0.00037583747
       300   0             -0.86958584     0             -0.86958584    -0.00037128581
       310   0             -0.88255601     0             -0.88255601    -0.00054866243
       320   0             -0.89420702     0             -0.89420702    -0.00036482107
       330   0             -0.90568614     0             -0.90568614    -0.00028402643
       340   0             -0.91773912     0             -0.91773912    -0.00030476926
       350   0             -0.9266843      0             -0.9266843     -0.00035936544
       360   0             -0.93512548     0             -0.93512548    -0.00041651736
       370   0             -0.94359096     0             -0.94359096    -0.0004220538 
       380   0             -0.95310667     0             -0.95310667    -0.00024244201
       381   0             -0.95310667     0             -0.95310667    -0.00024244201
Loop time of 0.0863927 on 16 procs for 381 steps with 1600 atoms

82.1% CPU use with 4 MPI tasks x 4 OpenMP threads

Minimization stats:
  Stopping criterion = linesearch alpha is zero
  Energy initial, next-to-last, final = 
      78840982.4763646 -0.953106674030022 -0.953106674030022
  Force two-norm initial, final = 1.6033542e+13 15.292371
  Force max component initial, final = 1.0518609e+13 5.4676463
  Final line search alpha, max atom move = 7.8125413e-08 4.2716213e-07
  Iterations, force evaluations = 381 791

MPI task timing breakdown:
Section |  min time  |  avg time  |  max time  |%varavg| %total
---------------------------------------------------------------
Pair    | 0.0085692  | 0.0098271  | 0.011251   |   1.1 | 11.37
Neigh   | 0.013753   | 0.015415   | 0.017104   |   1.0 | 17.84
Comm    | 0.022384   | 0.028501   | 0.032984   |   2.3 | 32.99
Output  | 0.00048567 | 0.00058505 | 0.00085566 |   0.0 |  0.68
Modify  | 0          | 0          | 0          |   0.0 |  0.00
Other   |            | 0.03206    |            |       | 37.12

Nlocal:            400 ave         426 max         362 min
Histogram: 1 0 0 0 1 0 0 0 1 1
Nghost:         329.25 ave         334 max         323 min
Histogram: 1 0 0 0 1 0 0 0 1 1
Neighs:         544.25 ave         646 max         453 min
Histogram: 1 1 0 0 0 0 0 1 0 1

Total # of neighbors = 2177
Ave neighs/atom = 1.360625
Neighbor list builds = 134
Dangerous builds = 0


# 2. Molecular Dynamics
#### Visualization ####
thermo 50

#### Running Simulation ####
fix myenv all nve
fix mylgv all langevin 1.0 1.0 0.1 1530917
timestep 0.005
run 10000
Generated 1 of 1 mixed pair_coeff terms from geometric mixing rule
Per MPI rank memory allocation (min/avg/max) = 5.758 | 5.758 | 5.758 Mbytes
   Step          Temp          PotEng         KinEng         TotEng         Press     
       381   0             -0.95310667     0             -0.95310667    -0.00024244201
       400   0.82276661    -0.82035869     1.2333786      0.41301988     0.037039525  
       450   0.99870297    -0.65445816     1.4971182      0.84266002     0.02920816   
       500   1.0186771     -0.57757501     1.5270606      0.94948557     0.025370227  
       550   0.95881018    -0.50221005     1.4373164      0.93510634     0.023208254  
       600   0.96569803    -0.46291714     1.4476417      0.98472456     0.02248757   
       650   0.98653194    -0.44393044     1.478873       1.0349426      0.023702799  
       700   0.98990763    -0.4130252      1.4839334      1.0709082      0.02387445   
       750   0.98537772    -0.38316077     1.4771428      1.093982       0.022332371  
       800   1.0091688     -0.3612956      1.5128071      1.1515115      0.024709824  
       850   0.99349796    -0.35498644     1.4893155      1.1343291      0.023996289  
       900   1.0062415     -0.34660713     1.5084189      1.1618117      0.02384795   
       950   1.0084358     -0.33717884     1.5117083      1.1745295      0.023344715  
      1000   0.97613141    -0.33584312     1.463282       1.1274389      0.02196547   
      1050   1.0022348     -0.32523391     1.5024125      1.1771786      0.022410923  
      1100   1.0352219     -0.31634828     1.5518624      1.2355141      0.023847631  
      1150   1.0028113     -0.30113855     1.5032769      1.2021383      0.023535491  
      1200   0.99185054    -0.29862121     1.4868459      1.1882247      0.022108758  
      1250   0.97166644    -0.29624735     1.4565887      1.1603414      0.021069639  
      1300   1.0016447     -0.27668815     1.501528       1.2248398      0.022901826  
      1350   0.94528889    -0.2835327      1.4170471      1.1335144      0.021034777  
      1400   0.97673573    -0.26853562     1.4641879      1.1956523      0.022477355  
      1450   0.99788608    -0.26339275     1.4958936      1.2325009      0.023482984  
      1500   1.0441088     -0.26380793     1.5651844      1.3013765      0.024018898  
      1550   0.97484285    -0.25414165     1.4613504      1.2072087      0.024015758  
      1600   0.99297622    -0.26858284     1.4885334      1.2199506      0.022619126  
      1650   1.0188162     -0.26981471     1.5272692      1.2574545      0.022744836  
      1700   0.99004573    -0.26653936     1.4841404      1.2176011      0.023565602  
      1750   0.95550472    -0.26685646     1.4323613      1.1655048      0.02166248   
      1800   1.0028947     -0.27249064     1.5034019      1.2309112      0.021861898  
      1850   0.97573734    -0.26678779     1.4626913      1.1959035      0.023608338  
      1900   1.0089303     -0.25981446     1.5124495      1.2526351      0.025487793  
      1950   1.0285121     -0.26273981     1.5418039      1.2790641      0.024104075  
      2000   1.0080201     -0.2705279      1.5110852      1.2405573      0.02171547   
      2050   0.99765581    -0.25599932     1.4955484      1.2395491      0.023465992  
      2100   1.0040561     -0.25318896     1.5051428      1.2519538      0.022012635  
      2150   1.0077697     -0.25254009     1.5107098      1.2581697      0.022828747  
      2200   1.0203441     -0.24846123     1.5295596      1.2810984      0.024813856  
      2250   1.0386565     -0.25244362     1.557011       1.3045673      0.023283844  
      2300   1.0032868     -0.24771815     1.5039897      1.2562715      0.023101208  
      2350   0.96654754    -0.24946164     1.4489152      1.1994535      0.022077799  
      2400   1.0397696     -0.24233941     1.5586797      1.3163403      0.025313809  
      2450   0.99492931    -0.26267233     1.4914612      1.2287889      0.021387473  
      2500   1.0179894     -0.25591095     1.5260298      1.2701188      0.023794609  
      2550   0.9666665     -0.25518854     1.4490935      1.193905       0.020720285  
      2600   0.97840388    -0.24651725     1.4666886      1.2201713      0.023331228  
      2650   0.99247037    -0.23240919     1.4877751      1.2553659      0.02322133   
      2700   0.99183746    -0.23693582     1.4868263      1.2498905      0.022330844  
      2750   1.0052869     -0.22956673     1.5069879      1.2774212      0.023198032  
      2800   0.99914585    -0.22360588     1.4977821      1.2741762      0.024136387  
      2850   0.99888726    -0.24687589     1.4973944      1.2505185      0.022270989  
      2900   0.96025936    -0.24544521     1.4394888      1.1940436      0.021479262  
      2950   1.0238616     -0.24766017     1.5348325      1.2871723      0.024260071  
      3000   1.007455      -0.2414568      1.510238       1.2687812      0.022828598  
      3050   1.0236189     -0.23444701     1.5344688      1.3000218      0.025367751  
      3100   0.93992805    -0.25026611     1.4090109      1.1587448      0.021268802  
      3150   1.013327      -0.24188452     1.5190405      1.277156       0.023261625  
      3200   1.0076787     -0.23982225     1.5105734      1.2707511      0.022305289  
      3250   0.99733468    -0.23452843     1.495067       1.2605386      0.02243385   
      3300   0.99844948    -0.23036879     1.4967382      1.2663694      0.021450801  
      3350   1.0058405     -0.22501449     1.5078177      1.2828032      0.022570256  
      3400   1.0235575     -0.22237173     1.5343767      1.312005       0.024218314  
      3450   0.99198202    -0.230849       1.487043       1.256194       0.021803319  
      3500   1.0079082     -0.22814423     1.5109174      1.2827731      0.023741314  
      3550   1.0290444     -0.22251619     1.5426018      1.3200856      0.024518837  
      3600   1.0118207     -0.22786488     1.5167825      1.2889176      0.023721628  
      3650   0.97794076    -0.22361938     1.4659943      1.2423749      0.023646588  
      3700   1.0199475     -0.22275489     1.528965       1.3062101      0.02491195   
      3750   0.98756357    -0.22652274     1.4804195      1.2538968      0.022744645  
      3800   0.98015481    -0.230484       1.4693133      1.2388293      0.023114995  
      3850   1.0192745     -0.23015752     1.5279562      1.2977987      0.022978245  
      3900   1.0238721     -0.23494391     1.5348483      1.2999043      0.02291325   
      3950   1.0102426     -0.2321378      1.5144167      1.2822789      0.023565255  
      4000   1.0324262     -0.23098872     1.5476714      1.3166827      0.024207056  
      4050   0.99578292    -0.24021544     1.4927408      1.2525254      0.022152744  
      4100   0.98698407    -0.23900726     1.4795508      1.2405436      0.0216642    
      4150   1.0400806     -0.221559       1.5591458      1.3375868      0.026874046  
      4200   0.99485169    -0.23399179     1.4913449      1.2573531      0.022977588  
      4250   0.99898015    -0.22965836     1.4975337      1.2678753      0.023668759  
      4300   1.009868      -0.24745047     1.5138553      1.2664048      0.022351644  
      4350   0.96506958    -0.23790891     1.4466996      1.2087907      0.022572704  
      4400   1.0190022     -0.2449486      1.527548       1.2825994      0.022735522  
      4450   0.98485223    -0.249509       1.4763551      1.226846       0.021571063  
      4500   0.98608754    -0.23890889     1.4782069      1.239298       0.023369822  
      4550   1.0396902     -0.24191165     1.5585606      1.316649       0.024695051  
      4600   0.97299729    -0.24107385     1.4585837      1.2175099      0.023355529  
      4650   1.0062153     -0.23389251     1.5083797      1.2744871      0.024787839  
      4700   0.99175197    -0.24154023     1.4866982      1.245158       0.022330588  
      4750   0.98453865    -0.24033775     1.475885       1.2355472      0.021996447  
      4800   1.0252867     -0.2289759      1.5369688      1.3079929      0.024585148  
      4850   1.0061377     -0.23381381     1.5082633      1.2744495      0.024777102  
      4900   0.97804968    -0.24203755     1.4661576      1.2241201      0.022090693  
      4950   1.0093271     -0.22813872     1.5130444      1.2849057      0.025887281  
      5000   0.99924611    -0.23743193     1.4979324      1.2605004      0.022969698  
      5050   1.0024046     -0.24029816     1.5026671      1.262369       0.024161091  
      5100   1.0101547     -0.24101389     1.514285       1.2732711      0.023325936  
      5150   1.0093055     -0.24629936     1.5130121      1.2667127      0.021775891  
      5200   0.98758788    -0.23853755     1.480456       1.2419184      0.023293296  
      5250   1.0046698     -0.2420532      1.5060628      1.2640096      0.022618919  
      5300   0.998415      -0.24201497     1.4966865      1.2546715      0.022883573  
      5350   0.99320354    -0.23960083     1.4888742      1.2492733      0.022331712  
      5400   1.0058876     -0.23808247     1.5078883      1.2698058      0.0223779    
      5450   1.0131942     -0.2389768      1.5188414      1.2798646      0.022789992  
      5500   1.0061254     -0.22854319     1.5082448      1.2797017      0.021987609  
      5550   1.0011993     -0.22674167     1.5008603      1.2741187      0.022291002  
      5600   0.99779815    -0.23045372     1.4957618      1.2653081      0.02148158   
      5650   0.98425533    -0.224563       1.4754603      1.2508973      0.022622883  
      5700   1.0028089     -0.24346441     1.5032733      1.2598089      0.023256986  
      5750   1.0020049     -0.24212013     1.502068       1.2599479      0.023421904  
      5800   1.0290068     -0.24719691     1.5425455      1.2953486      0.022843708  
      5850   0.95638623    -0.24865246     1.4336827      1.1850303      0.021265108  
      5900   1.0003475     -0.23402917     1.4995835      1.2655543      0.023425968  
      5950   0.98074005    -0.24406537     1.4701906      1.2261253      0.022668849  
      6000   1.0289821     -0.24105175     1.5425084      1.3014567      0.024164235  
      6050   0.99005582    -0.24536746     1.4841556      1.2387881      0.022896975  
      6100   0.98833193    -0.24228845     1.4815713      1.2392829      0.022876259  
      6150   1.0030775     -0.24304175     1.5036759      1.2606342      0.022779458  
      6200   1.0151102     -0.24201224     1.5217136      1.2797013      0.022861069  
      6250   1.0273566     -0.23906353     1.5400717      1.3010082      0.023218583  
      6300   0.97491931    -0.24301749     1.461465       1.2184475      0.023156053  
      6350   0.99999726    -0.24194391     1.4990584      1.2571145      0.022337551  
      6400   0.98611184    -0.22900719     1.4782433      1.2492361      0.02214568   
      6450   0.98642384    -0.23748163     1.478711       1.2412294      0.023062518  
      6500   1.0094281     -0.24238579     1.5131958      1.27081        0.021403581  
      6550   1.0047189     -0.23205403     1.5061365      1.2740824      0.024286793  
      6600   1.030867      -0.22877511     1.5453341      1.316559       0.024633644  
      6650   1.0062148     -0.24041609     1.5083789      1.2679629      0.022874475  
      6700   0.96681225    -0.23220573     1.449312       1.2171063      0.022245203  
      6750   1.0308496     -0.23308328     1.545308       1.3122247      0.024338318  
      6800   0.99695184    -0.2419084      1.4944931      1.2525847      0.023056188  
      6850   1.0145885     -0.23834506     1.5209315      1.2825864      0.024225084  
      6900   0.99071102    -0.23660824     1.4851377      1.2485295      0.023639422  
      6950   0.98563307    -0.23156334     1.4775256      1.2459622      0.022909729  
      7000   0.97574742    -0.24136473     1.4627064      1.2213416      0.022882894  
      7050   0.99722383    -0.23896595     1.4949009      1.2559349      0.023047506  
      7100   0.99535228    -0.23417        1.4920953      1.2579253      0.022394951  
      7150   1.0094346     -0.2363037      1.5132056      1.2769019      0.021929928  
      7200   0.98513138    -0.23904898     1.4767735      1.2377245      0.021092384  
      7250   1.024212      -0.21874721     1.5353578      1.3166106      0.024978764  
      7300   0.99318629    -0.22970162     1.4888483      1.2591467      0.024187109  
      7350   1.0247228     -0.23361667     1.5361236      1.3025069      0.023716864  
      7400   1.0020917     -0.23211707     1.502198       1.270081       0.023602326  
      7450   0.99612807    -0.23347759     1.4932582      1.2597806      0.023157023  
      7500   0.97975082    -0.23222623     1.4687077      1.2364815      0.022586283  
      7550   0.99778289    -0.240459       1.4957389      1.2552799      0.023185495  
      7600   1.0222134     -0.24767951     1.5323617      1.2846822      0.023900755  
      7650   1.0126134     -0.23740899     1.5179708      1.2805618      0.024388714  
      7700   0.95285798    -0.23491657     1.4283937      1.1934771      0.022446832  
      7750   0.99974904    -0.23683539     1.4986863      1.2618509      0.022977611  
      7800   0.9779618     -0.24565387     1.4660259      1.220372       0.022050335  
      7850   0.98628375    -0.24225243     1.478501       1.2362486      0.023430212  
      7900   0.96651719    -0.24258007     1.4488697      1.2062896      0.022897815  
      7950   0.98509404    -0.2468087      1.4767175      1.2299088      0.023696358  
      8000   0.94400393    -0.24428952     1.4151209      1.1708314      0.02115283   
      8050   0.96320477    -0.24031427     1.4439041      1.2035899      0.022271351  
      8100   1.0431427     -0.24723181     1.563736       1.3165042      0.023145143  
      8150   0.98558295    -0.24108095     1.4774504      1.2363695      0.022096398  
      8200   0.96592072    -0.23081914     1.4479755      1.2171564      0.021247493  
      8250   1.001041      -0.21964769     1.500623       1.2809753      0.024068234  
      8300   1.0266834     -0.22486053     1.5390626      1.3142021      0.023129957  
      8350   1.008222      -0.23069662     1.5113878      1.2806912      0.023201071  
      8400   0.97545489    -0.22305456     1.4622678      1.2392133      0.023979921  
      8450   0.9956741     -0.23512599     1.4925777      1.2574517      0.022851761  
      8500   1.0130252     -0.24017064     1.518588       1.2784174      0.023194073  
      8550   0.9945697     -0.22723299     1.4909221      1.2636891      0.023016297  
      8600   0.98709294    -0.23085012     1.479714       1.2488639      0.021749676  
      8650   0.98460844    -0.22113035     1.4759896      1.2548592      0.022566692  
      8700   1.0223445     -0.2178938      1.5325583      1.3146645      0.023262708  
      8750   0.98380569    -0.21950232     1.4747862      1.2552839      0.023408594  
      8800   1.026889      -0.22662693     1.5393707      1.3127438      0.02337762   
      8850   1.0035071     -0.22358686     1.5043198      1.2807329      0.021986907  
      8900   0.99216999    -0.22628128     1.4873248      1.2610435      0.023162186  
      8950   0.99110915    -0.22548082     1.4857346      1.2602537      0.022793198  
      9000   1.0177598     -0.23515936     1.5256855      1.2905261      0.021837672  
      9050   1.0314241     -0.2268193      1.5461692      1.3193499      0.024985546  
      9100   0.97137866    -0.2308792      1.4561573      1.2252781      0.022984617  
      9150   0.9994054     -0.23841019     1.4981712      1.259761       0.02170594   
      9200   0.98696178    -0.22530995     1.4795174      1.2542074      0.02330647   
      9250   1.0011407     -0.22898274     1.5007724      1.2717897      0.022281198  
      9300   1.0045056     -0.22877743     1.5058167      1.2770393      0.022895065  
      9350   1.0311549     -0.2335702      1.5457657      1.3121955      0.022210109  
      9400   0.99772033    -0.22489223     1.4956451      1.2707529      0.022096816  
      9450   0.99784082    -0.2242024      1.4958258      1.2716234      0.022862379  
      9500   1.0291225     -0.22865075     1.542719       1.3140683      0.023763664  
      9550   0.99454622    -0.23430222     1.4908869      1.2565847      0.022744872  
      9600   1.0106024     -0.23216416     1.5149562      1.282792       0.023006295  
      9650   0.97379547    -0.24020909     1.4597803      1.2195712      0.020491909  
      9700   1.0012999     -0.23756948     1.5010111      1.2634416      0.022409584  
      9750   0.97898909    -0.23222244     1.4675658      1.2353434      0.022515645  
      9800   1.008101      -0.24411349     1.5112065      1.267093       0.022561519  
      9850   1.0430725     -0.25128829     1.5636309      1.3123426      0.024537381  
      9900   0.97755156    -0.24869226     1.4654109      1.2167186      0.02275499   
      9950   1.0046169     -0.25693095     1.5059835      1.2490525      0.022810059  
     10000   1.0322624     -0.25092641     1.5474258      1.2964994      0.023458494  
     10050   0.98418373    -0.24475372     1.4753529      1.2305992      0.023647303  
     10100   1.0071997     -0.25326556     1.5098554      1.2565898      0.02302671   
     10150   1.015966      -0.25093152     1.5229965      1.272065       0.023644341  
     10200   1.0315473     -0.24804171     1.5463538      1.2983121      0.024431464  
     10250   0.99287951    -0.23796459     1.4883884      1.2504239      0.024652787  
     10300   1.0103242     -0.24023868     1.5145392      1.2743005      0.023218116  
     10350   1.0023384     -0.24002966     1.5025678      1.2625382      0.022592997  
     10381   0.99937449    -0.24201102     1.4981248      1.2561138      0.020857101  
Loop time of 1.50299 on 16 procs for 10000 steps with 1600 atoms

Performance: 2874273.370 tau/day, 6653.411 timesteps/s, 10.645 Matom-step/s
80.6% CPU use with 4 MPI tasks x 4 OpenMP threads

MPI task timing breakdown:
Section |  min time  |  avg time  |  max time  |%varavg| %total
---------------------------------------------------------------
Pair    | 0.11426    | 0.12365    | 0.14191    |   3.2 |  8.23
Neigh   | 0.21273    | 0.23081    | 0.26405    |   4.1 | 15.36
Comm    | 0.45143    | 0.49215    | 0.51256    |   3.4 | 32.74
Output  | 0.0050817  | 0.0068444  | 0.010786   |   2.8 |  0.46
Modify  | 0.25466    | 0.27251    | 0.30576    |   3.9 | 18.13
Other   |            | 0.377      |            |       | 25.09

Nlocal:            400 ave         436 max         376 min
Histogram: 1 0 1 0 1 0 0 0 0 1
Nghost:         342.25 ave         359 max         325 min
Histogram: 1 1 0 0 0 0 0 0 1 1
Neighs:            508 ave         582 max         470 min
Histogram: 1 2 0 0 0 0 0 0 0 1

Total # of neighbors = 2032
Ave neighs/atom = 1.27
Neighbor list builds = 1250
Dangerous builds = 0
Total wall time: 0:00:01
